000 000 000 000 -99 000 000 000 -99 -99 000 000 000 000 000 000 000 000 000 000 000 000 -99 -99 000 -99 -99 -99 -99 -99 -99
000 000 000 000 000 000 000 000 -99 -99 000 000 000 000 000 000 000 000 000 000 000 000 000 000 000 000 -99 -99 -99 -99 -99
-99 000 000 000 000 000 000 000 -99 000 000 000 000 000 000 000 001 001 001 000 000 000 000 000 000 000 000 -99 -99 -99 -99
000 000 000 000 000 000 000 000 000 000 000 000 000 000 000 001 002 001 000 000 000 000 000 000 000 000 000 -99 -99 -99 -99
000 000 000 000 000 000 000 000 000 000 -99 000 000 000 000 000 001 001 000 000 000 000 000 000 000 000 000 000 -99 -99 -99
000 000 000 000 000 -99 000 000 000 000 -99 -99 000 000 000 000 001 001 001 001 000 000 000 000 001 000 000 -99 -99 -99 000
000 000 000 000 000 000 000 000 000 000 -99 -99 000 000 000 000 000 000 000 001 000 000 000 001 001 000 000 -99 -99 -99 -99
000 000 000 000 000 000 -99 000 000 000 000 -99 -99 000 000 000 000 000 000 000 001 000 001 001 001 000 000 -99 -99 000 -99
000 000 000 000 000 000 -99 000 000 000 000 000 -99 -99 000 000 000 000 000 000 000 000 000 001 001 000 000 000 -99 000 000
000 000 000 000 000 000 000 -99 000 000 000 000 -99 -99 000 000 000 000 000 000 000 000 000 000 000 000 000 000 -99 -99 -99
000 000 000 000 000 -99 000 -99 000 000 000 000 -99 -99 000 000 -99 000 000 000 000 000 000 000 000 000 000 000 -99 000 000
000 000 000 -99 000 000 000 000 000 000 000 000 -99 -99 000 000 -99 000 000 000 000 000 -99 000 000 000 000 000 000 000 000
000 000 000 000 000 000 000 000 000 000 000 000 000 000 000 000 000 000 000 000 000 -99 -99 000 000 000 000 000 000 000 000
000 000 000 000 000 000 000 000 -99 000 000 000 000 -99 -99 -99 000 000 000 000 000 -99 000 000 000 000 000 000 000 000 000
000 000 -99 000 000 000 000 000 000 -99 -99 -99 -99 000 -99 000 000 -99 000 -99 -99 -99 000 -99 000 000 000 000 000 000 000
000 000 -99 000 000 000 000 000 000 -99 -99 -99 -99 -99 -99 -99 000 -99 000 -99 -99 000 -99 -99 000 000 000 000 000 000 -99
000 000 000 000 000 000 000 000 000 -99 -99 -99 -99 000 000 -99 000 -99 -99 -99 -99 -99 000 -99 -99 000 000 000 000 000 -99
000 000 000 000 -99 000 000 000 000 000 -99 -99 -99 000 000 -99 000 000 -99 -99 -99 -99 000 -99 -99 -99 000 000 000 000 -99
000 000 000 -99 -99 -99 -99 000 000 000 -99 -99 -99 000 000 -99 000 000 -99 -99 -99 -99 000 -99 -99 -99 000 -99 000 000 -99
000 000 000 000 000 -99 -99 000 000 000 -99 -99 -99 000 000 -99 000 000 -99 -99 -99 -99 000 -99 -99 -99 -99 -99 -99 000 -99
000 000 000 000 000 000 -99 000 000 000 -99 -99 -99 000 000 -99 000 000 000 -99 000 000 000 -99 -99 -99 -99 -99 -99 -99 -99
000 000 000 000 000 000 -99 000 000 -99 -99 -99 -99 000 000 000 -99 000 000 000 000 000 000 -99 -99 -99 -99 -99 -99 -99 -99
000 000 000 000 000 000 -99 000 000 000 -99 -99 -99 000 000 000 -99 000 000 000 000 000 000 -99 -99 -99 -99 -99 -99 -99 -99
000 000 000 000 000 000 -99 000 000 000 -99 -99 000 000 000 000 000 000 000 000 000 000 -99 -99 -99 -99 -99 -99 -99 -99 -99
000 000 000 000 000 000 -99 000 000 000 -99 -99 000 000 000 000 000 000 000 000 000 000 -99 -99 -99 -99 -99 -99 -99 -99 -99
000 000 000 000 000 000 000 000 000 000 -99 -99 -99 000 000 -99 000 000 000 000 000 -99 -99 -99 -99 -99 -99 -99 -99 -99 000
000 000 000 000 000 000 000 000 000 000 -99 -99 -99 000 000 000 000 000 000 000 000 000 -99 -99 -99 -99 -99 -99 -99 -99 000
000 000 000 -99 000 000 000 000 -99 -99 -99 -99 -99 000 000 000 000 000 000 000 000 000 -99 -99 -99 -99 -99 -99 -99 -99 000
000 -99 000 000 000 000 000 000 000 -99 -99 -99 -99 000 000 000 000 000 000 000 000 000 -99 -99 -99 -99 -99 -99 -99 -99 -99
000 000 000 000 000 000 -99 000 000 -99 -99 -99 -99 000 000 000 000 000 000 000 -99 000 -99 -99 -99 -99 -99 -99 -99 -99 -99
000 000 000 000 000 000 000 000 000 -99 -99 -99 -99 000 000 000 000 000 000 -99 -99 000 000 000 -99 -99 -99 -99 -99 -99 -99
000 000 000 000 000 000 000 000 000 -99 -99 -99 -99 -99 -99 -99 000 000 000 000 -99 -99 000 000 -99 -99 -99 -99 000 -99 000
000 000 000 000 000 000 000 000 000 000 -99 -99 -99 -99 -99 -99 000 000 000 -99 -99 -99 000 000 -99 -99 -99 000 000 -99 000
000 000 000 000 000 000 000 000 000 000 -99 -99 -99 -99 000 000 000 000 000 -99 -99 000 000 000 -99 000 000 000 000 -99 000
000 000 000 000 000 000 000 000 000 000 -99 -99 -99 -99 -99 000 000 000 000 000 -99 000 000 000 000 000 000 000 000 000 000
000 000 000 000 000 000 000 000 000 000 -99 -99 000 -99 -99 000 000 000 000 000 000 000 000 000 000 000 000 000 000 000 000
000 000 000 000 000 000 000 000 000 000 -99 -99 000 -99 000 000 000 000 000 -99 -99 000 000 000 000 000 000 000 000 000 000
000 -99 000 000 000 -99 000 000 000 000 -99 -99 000 000 000 000 000 000 000 -99 000 000 000 000 000 -99 000 000 000 000 000
000 -99 -99 000 -99 -99 000 000 -99 -99 -99 -99 000 000 000 000 000 000 000 -99 000 000 000 000 000 -99 -99 000 000 000 000
000 -99 -99 -99 -99 -99 000 000 -99 -99 -99 -99 000 000 -99 000 000 000 000 -99 -99 -99 000 000 -99 000 000 000 000 000 000
000 -99 -99 -99 -99 -99 -99 -99 -99 -99 000 000 000 000 -99 000 000 -99 -99 -99 -99 -99 000 000 000 000 000 000 000 000 000
000 000 -99 -99 -99 -99 -99 -99 -99 -99 000 000 000 -99 -99 000 -99 -99 -99 -99 -99 -99 -99 -99 000 -99 000 000 000 000 000
000 -99 -99 -99 -99 -99 -99 -99 -99 000 000 -99 000 -99 -99 000 -99 -99 -99 -99 -99 -99 -99 000 000 -99 -99 000 000 000 000
000 -99 -99 -99 -99 -99 -99 -99 -99 -99 -99 000 000 -99 000 000 000 -99 000 000 -99 -99 -99 -99 -99 -99 -99 -99 -99 -99 000
000 000 -99 -99 -99 -99 000 000 -99 -99 000 000 000 -99 000 000 -99 -99 000 -99 -99 -99 -99 -99 -99 -99 -99 -99 -99 -99 000
000 -99 -99 -99 -99 -99 -99 -99 -99 -99 000 000 000 -99 -99 -99 000 -99 000 -99 -99 -99 -99 -99 -99 -99 -99 -99 -99 -99 -99
-99 -99 -99 -99 -99 -99 -99 -99 -99 -99 000 000 -99 -99 -99 004 004 004 -99 -99 000 000 000 -99 -99 000 000 -99 -99 -99 -99
-99 -99 -99 -99 -99 -99 -99 -99 -99 -99 -99 -99 -99 -99 -99 021 009 -99 -99 -99 000 -99 000 -99 000 000 -99 -99 -99 -99 -99
-99 -99 -99 -99 -99 -99 -99 -99 -99 -99 -99 -99 -99 -99 022 022 021 -99 -99 000 000 000 000 -99 -99 000 -99 -99 -99 -99 -99
-99 -99 -99 -99 -99 -99 -99 -99 -99 -99 -99 -99 -99 -99 005 010 -99 -99 -99 -99 000 000 -99 -99 -99 -99 -99 -99 -99 -99 -99
-99 -99 -99 -99 -99 -99 -99 -99 000 000 -99 -99 -99 000 000 005 -99 -99 -99 -99 000 000 -99 -99 -99 -99 -99 -99 -99 -99 -99
-99 -99 -99 -99 -99 -99 000 -99 000 -99 -99 -99 -99 000 -99 -99 -99 -99 -99 000 000 -99 -99 -99 -99 -99 -99 -99 -99 -99 -99
-99 -99 -99 -99 -99 -99 000 000 -99 -99 -99 -99 -99 -99 -99 -99 000 -99 -99 000 -99 -99 -99 -99 -99 -99 -99 -99 -99 -99 -99
-99 -99 -99 -99 -99 -99 -99 -99 -99 -99 -99 -99 -99 -99 -99 -99 000 000 -99 -99 -99 -99 -99 -99 -99 -99 -99 -99 -99 -99 -99
-99 -99 -99 -99 -99 -99 -99 -99 -99 -99 -99 -99 -99 -99 -99 000 000 000 -99 -99 -99 -99 -99 -99 -99 -99 -99 -99 -99 -99 -99
